Version identifier: 22.1.0.0 | 2022-03-09 | 1a383f8ce
CPXPARAM_Threads                                 1
CPXPARAM_MIP_Strategy_VariableSelect             3
CPXPARAM_TimeLimit                               599.99996908000003
1 of 1 MIP starts provided solutions.
MIP start 'm1' defined initial solution with objective 3.0000.
Tried aggregator 1 time.
MIP Presolve eliminated 10 rows and 0 columns.
MIP Presolve modified 4 coefficients.
Reduced MIP has 2815 rows, 10000 columns, and 138597 nonzeros.
Reduced MIP has 10000 binaries, 0 generals, 0 SOSs, and 0 indicators.
Presolve time = 0.11 sec. (76.11 ticks)
Probing time = 0.01 sec. (8.75 ticks)
Tried aggregator 1 time.
Detecting symmetries...
Reduced MIP has 2815 rows, 10000 columns, and 138597 nonzeros.
Reduced MIP has 10000 binaries, 0 generals, 0 SOSs, and 0 indicators.
Presolve time = 0.12 sec. (81.62 ticks)
Probing time = 0.01 sec. (8.75 ticks)
Clique table members: 1596.
MIP emphasis: balance optimality and feasibility.
MIP search method: dynamic search.
Parallel mode: none, using 1 thread.
Root relaxation solution time = 2.54 sec. (2815.56 ticks)

        Nodes                                         Cuts/
   Node  Left     Objective  IInf  Best Integer    Best Bound    ItCnt     Gap

*     0+    0                            3.0000    10000.0000              --- 
      0     0      400.0000  1547        3.0000      400.0000     6802     --- 
      0     0      400.0000   216        3.0000       Cuts: 3     7501     --- 
      0     0      400.0000   547        3.0000      Cuts: 66    11871     --- 
*     0+    0                          308.0000      400.0000            29.87%
*     0+    0                          342.0000      400.0000            16.96%
*     0+    0                          396.0000      400.0000             1.01%
      0     0        cutoff            396.0000      400.0000    11871    1.01%
Detecting symmetries...
      0     2      400.0000    53      396.0000      400.0000    11871    1.01%
Elapsed time = 59.16 sec. (68213.01 ticks, tree = 0.01 MB, solutions = 4)
      1     3      400.0000   747      396.0000      400.0000    29499    1.01%
      2     4      400.0000    50      396.0000      400.0000    32705    1.01%
      3     5      400.0000    47      396.0000      400.0000    37537    1.01%
      4     6      400.0000   235      396.0000      400.0000    40953    1.01%
      5     7      400.0000    42      396.0000      400.0000    40999    1.01%
      6     8      400.0000    34      396.0000      400.0000    51980    1.01%
      7     9      400.0000   164      396.0000      400.0000    60548    1.01%
      8    10      400.0000   263      396.0000      400.0000    68392    1.01%
      9    11      400.0000   149      396.0000      400.0000    70079    1.01%
     11    13      400.0000   137      396.0000      400.0000    72899    1.01%
Elapsed time = 90.67 sec. (104904.71 ticks, tree = 0.09 MB, solutions = 4)
     13    15      400.0000   150      396.0000      400.0000    76890    1.01%
     15    17      400.0000    93      396.0000      400.0000    78898    1.01%
     16    18      400.0000   240      396.0000      400.0000    84811    1.01%
     17    19      400.0000   128      396.0000      400.0000    87126    1.01%
     18    20      400.0000   615      396.0000      400.0000    95396    1.01%
     20    22      400.0000   135      396.0000      400.0000    99396    1.01%
     22    24      400.0000   115      396.0000      400.0000   101759    1.01%
     23    25      400.0000    76      396.0000      400.0000   106082    1.01%
     24    26      400.0000    87      396.0000      400.0000   107657    1.01%
     27    29      400.0000    82      396.0000      400.0000   110793    1.01%
Elapsed time = 111.50 sec. (128556.00 ticks, tree = 0.34 MB, solutions = 4)
     28    30      400.0000    76      396.0000      400.0000   111953    1.01%
     30    32      400.0000    86      396.0000      400.0000   114621    1.01%
     31    33      400.0000   140      396.0000      400.0000   118075    1.01%
     32    34      400.0000    76      396.0000      400.0000   119682    1.01%
     34    36      400.0000   559      396.0000      400.0000   128278    1.01%
     35    37      400.0000   351      396.0000      400.0000   134242    1.01%
     36    38      400.0000   297      396.0000      400.0000   138561    1.01%
     37    39      400.0000   319      396.0000      400.0000   139415    1.01%
     38    40      400.0000   385      396.0000      400.0000   140848    1.01%
     39    41      400.0000   286      396.0000      400.0000   146060    1.01%
Elapsed time = 132.63 sec. (151871.34 ticks, tree = 0.65 MB, solutions = 4)
     41    43      400.0000   429      396.0000      400.0000   149774    1.01%
     43    45      400.0000   305      396.0000      400.0000   150250    1.01%
     45    47      400.0000   276      396.0000      400.0000   153834    1.01%
     46    48      400.0000   341      396.0000      400.0000   156076    1.01%
     47    49      400.0000   260      396.0000      400.0000   159736    1.01%
     48    50      400.0000   302      396.0000      400.0000   162401    1.01%
     50    52      400.0000   265      396.0000      400.0000   163409    1.01%
     51    53      400.0000   277      396.0000      400.0000   166188    1.01%
     53    55      400.0000   278      396.0000      400.0000   168552    1.01%
     54    56      400.0000   264      396.0000      400.0000   169853    1.01%
Elapsed time = 162.39 sec. (183246.51 ticks, tree = 0.93 MB, solutions = 4)
     55    57      400.0000   284      396.0000      400.0000   171434    1.01%
     56    58      400.0000   260      396.0000      400.0000   172674    1.01%
     57    59      400.0000   329      396.0000      400.0000   177166    1.01%
     59    61      400.0000   276      396.0000      400.0000   179728    1.01%
     60    62      400.0000   259      396.0000      400.0000   180833    1.01%
     61    63      400.0000   306      396.0000      400.0000   183772    1.01%
     63    65      400.0000   254      396.0000      400.0000   184034    1.01%
     64    66      400.0000   269      396.0000      400.0000   185591    1.01%
     65    67      400.0000   262      396.0000      400.0000   187533    1.01%
     66    68      400.0000   296      396.0000      400.0000   191203    1.01%
Elapsed time = 178.02 sec. (200144.50 ticks, tree = 1.17 MB, solutions = 4)
     68    70      400.0000   303      396.0000      400.0000   195171    1.01%
     70    72      400.0000   283      396.0000      400.0000   195438    1.01%
     71    73      400.0000   278      396.0000      400.0000   198272    1.01%
     72    74      400.0000   311      396.0000      400.0000   200103    1.01%
     74    76      400.0000   272      396.0000      400.0000   200924    1.01%
     75    77      400.0000   243      396.0000      400.0000   202959    1.01%
     76    78      400.0000   349      396.0000      400.0000   205655    1.01%
     78    80      400.0000   377      396.0000      400.0000   209959    1.01%
     80    82      400.0000   238      396.0000      400.0000   214042    1.01%
     81    83      400.0000   231      396.0000      400.0000   215492    1.01%
Elapsed time = 195.74 sec. (219398.37 ticks, tree = 1.54 MB, solutions = 4)
     82    84      400.0000   340      396.0000      400.0000   224933    1.01%
     84    86      400.0000   218      396.0000      400.0000   226448    1.01%
     85    87      400.0000   200      396.0000      400.0000   227897    1.01%
     86    88      400.0000   191      396.0000      400.0000   229243    1.01%
     87    89      400.0000   194      396.0000      400.0000   231155    1.01%
     88    90      400.0000   201      396.0000      400.0000   232569    1.01%
     89    91      400.0000   339      396.0000      400.0000   234696    1.01%
     91    93      400.0000   289      396.0000      400.0000   238408    1.01%
     92    94      400.0000   195      396.0000      400.0000   241836    1.01%
     93    95      400.0000   329      396.0000      400.0000   245840    1.01%
Elapsed time = 213.90 sec. (239198.28 ticks, tree = 1.78 MB, solutions = 4)
     94    96      400.0000   446      396.0000      400.0000   248201    1.01%
     95    97      400.0000   304      396.0000      400.0000   250041    1.01%
     96    98      400.0000   315      396.0000      400.0000   252335    1.01%
     98    99      400.0000   303      396.0000      400.0000   252904    1.01%
    100   101      400.0000   329      396.0000      400.0000   254798    1.01%
    101   102      400.0000   297      396.0000      400.0000   256167    1.01%
    102   103      400.0000   285      396.0000      400.0000   261455    1.01%
    103   104      400.0000   440      396.0000      400.0000   262616    1.01%
    104   105      400.0000   550      396.0000      400.0000   264948    1.01%
    105   106      400.0000   249      396.0000      400.0000   266626    1.01%
Elapsed time = 228.16 sec. (254112.58 ticks, tree = 2.07 MB, solutions = 4)
    106   107      400.0000   553      396.0000      400.0000   270442    1.01%
    107   108      400.0000   246      396.0000      400.0000   272958    1.01%
    109   110      400.0000   251      396.0000      400.0000   274662    1.01%
    110   111      400.0000   253      396.0000      400.0000   276701    1.01%
    111   112      400.0000   266      396.0000      400.0000   278956    1.01%
    113   114      400.0000   271      396.0000      400.0000   281074    1.01%
    114   115      400.0000   434      396.0000      400.0000   283262    1.01%
    116   116      400.0000   268      396.0000      400.0000   285410    1.01%
    118   118      400.0000   229      396.0000      400.0000   286999    1.01%
    119   119      400.0000   471      396.0000      400.0000   290640    1.01%
Elapsed time = 243.38 sec. (269258.10 ticks, tree = 2.38 MB, solutions = 4)
    120   120      400.0000   234      396.0000      400.0000   290765    1.01%
    122   122      400.0000   545      396.0000      400.0000   293720    1.01%
    123   123      400.0000   181      396.0000      400.0000   295844    1.01%
    125   125      400.0000   150      396.0000      400.0000   298762    1.01%
    126   126      400.0000   213      396.0000      400.0000   301371    1.01%
    128   127      400.0000   134      396.0000      400.0000   303661    1.01%
    129   128      400.0000   156      396.0000      400.0000   306075    1.01%
    131   129      400.0000   518      396.0000      400.0000   309218    1.01%
    133   131      400.0000   172      396.0000      400.0000   312213    1.01%
    138   136      400.0000   130      396.0000      400.0000   318032    1.01%
Elapsed time = 277.23 sec. (302451.22 ticks, tree = 2.85 MB, solutions = 4)
    142   140      400.0000   515      396.0000      400.0000   324184    1.01%
    147   145      400.0000   438      396.0000      400.0000   330200    1.01%
    153   151      400.0000   326      396.0000      400.0000   334752    1.01%
    159   157      400.0000   202      396.0000      400.0000   341474    1.01%
    164   162      400.0000   193      396.0000      400.0000   347197    1.01%
    168   166      400.0000   353      396.0000      400.0000   354352    1.01%
    174   172      400.0000   164      396.0000      400.0000   364817    1.01%
    178   176      400.0000   143      396.0000      400.0000   372521    1.01%
    182   180      400.0000   193      396.0000      400.0000   381892    1.01%
    187   185      400.0000   171      396.0000      400.0000   389345    1.01%
Elapsed time = 321.29 sec. (345038.29 ticks, tree = 4.09 MB, solutions = 4)
    191   189      400.0000   240      396.0000      400.0000   397355    1.01%
    196   194      400.0000   156      396.0000      400.0000   404710    1.01%
    201   199      400.0000   289      396.0000      400.0000   412462    1.01%
    207   205      400.0000   174      396.0000      400.0000   422314    1.01%
    213   211      400.0000   167      396.0000      400.0000   429594    1.01%
    220   218      400.0000    94      396.0000      400.0000   437597    1.01%
    226   224      400.0000   154      396.0000      400.0000   446037    1.01%
    233   230      400.0000   122      396.0000      400.0000   452429    1.01%
    241   237      400.0000   172      396.0000      400.0000   458074    1.01%
    247   242      400.0000    96      396.0000      400.0000   465742    1.01%
Elapsed time = 365.84 sec. (387169.87 ticks, tree = 5.59 MB, solutions = 4)
    254   249      400.0000   373      396.0000      400.0000   475342    1.01%
    262   257      400.0000    50      396.0000      400.0000   481287    1.01%
*   265     0      integral     0      400.0000      400.0000   483152    0.00%

Clique cuts applied:  8
Zero-half cuts applied:  15
Gomory fractional cuts applied:  3

Root node processing (before b&c):
  Real time             =   59.00 sec. (68027.65 ticks)
Sequential b&c:
  Real time             =  317.27 sec. (328809.16 ticks)
                          ------------
Total (root+branch&cut) =  376.27 sec. (396836.80 ticks)
Primal:	400
Dual:	400
Status:	Optimal
Time:	376.33
Sequence:
	22
	11
	12
	5
	9
	12
	7
	23
	1
	20
	9
	13
	7
	16
	5
	21
	2
	21
	5
	16
	7
	12
	11
	20
	0
	21
	9
	14
	5
	23
	0
	21
	11
	12
	5
	16
	7
	21
	0
	23
	5
	14
	5
	16
	7
	5
	19
	5
	20
	1
	20
	9
	14
	6
	23
	1
	20
	7
	16
	5
	21
	2
	21
	5
	16
	5
	22
	1
	20
	9
	12
	7
	18
	5
	13
	9
	21
	1
	23
	5
	12
	9
	21
	0
	23
	7
	12
	9
	21
	0
	23
	5
	12
	9
	21
	1
	20
	10
	12
	7
	18
	5
	20
	0
	21
	11
	12
	5
	16
	6
	21
	1
	23
	5
	13
	11
	20
	1
	23
	6
	14
	9
	20
	1
	23
	7
	13
	9
	20
	1
	23
	7
	12
	10
	20
	1
	23
	7
	12
	9
	14
	5
	19
	5
	20
	3
	20
	7
	13
	9
	20
	1
	23
	7
	12
	9
	21
	0
	21
	9
	12
	7
	13
	9
	20
	1
	23
	7
	12
	9
	12
	6
	20
	3
	21
	5
	16
	5
	7
	13
	5
	16
	7
	20
	3
	20
	5
	18
	5
	15
	9
	20
	1
	23
	5
	12
	10
	21
	1
	23
	5
	12
	11
	8
	12
	9
	20
	1
	21
	6
	16
	5
	12
	11
	13
	5
	11
	12
	5
	11
	13
	7
	9
	12
	7
	20
	2
	21
	5
	16
	7
	12
	8
	16
	5
	5
	18
	5
	21
	0
	23
	5
	12
	9
	14
	7
	13
	9
	20
	1
	23
	7
	12
	9
	20
	1
	20
	5
	18
	5
	20
	3
	20
	7
	16
	6
	12
	7
	18
	5
	5
	17
	7
	14
	9
	20
	0
	21
	11
	12
	5
	23
	1
	22
	5
	16
	5
	20
	3
	22
	5
	16
	5
	21
	4
	20
	5
	16
	7
	21
	0
	23
	5
	14
	11
	13
	5
	23
	1
	21
	9
	12
	5
	24
	1
	20
	9
	12
	7
	20
	3
	20
	5
	18
	0
	21
	5
	16
	7
	12
	11
	20
	0
	21
	9
	14
	5
	20
	3
	20
	5
	18
	6
	20
	3
	20
	7
	16
	6
	7
	16
	7
	20
	2
	21
	5
	14
	9
	20
	1
	23
	5
	15
	9
	20
	1
	23
	6
	12
	11
	20
	1
	23
	6
	14
	9
	12
	7
	23
	1
	20
	6
	18
	5
	14
	9
	20
	1
	23
	6
	12
	11
	12
	5
	18
	5
	8
	16
	5
	21
